c This is a sample SATISFIABLE problem (uf20-01.cnf)
c It has 20 variables and 91 clauses.
p cnf 20 91
1 -5 4 0
-1 5 -4 0
2 -6 5 0
-2 6 -5 0
3 -7 6 0
-3 7 -6 0
4 -8 7 0
-4 8 -7 0
5 -9 8 0
-5 9 -8 0
6 -10 9 0
-6 10 -9 0
7 -11 10 0
-7 11 -10 0
8 -12 11 0
-8 12 -11 0
9 -13 12 0
-9 13 -12 0
10 -14 13 0
-10 14 -13 0
11 -15 14 0
-11 15 -14 0
12 -16 15 0
-12 16 -15 0
13 -17 16 0
-13 17 -16 0
14 -18 17 0
-14 18 -17 0
15 -19 18 0
-15 19 -18 0
16 -20 19 0
-16 20 -19 0
1 2 3 0
-1 -2 -3 0
1 2 4 0
-1 -2 -4 0
1 2 5 0
-1 -2 -5 0
1 2 6 0
-1 -2 -6 0
1 2 7 0
-1 -2 -7 0
1 2 8 0
-1 -2 -8 0
1 2 9 0
-1 -2 -9 0
1 2 10 0
-1 -2 -10 0
1 2 11 0
-1 -2 -11 0
1 2 12 0
-1 -2 -12 0
1 2 13 0
-1 -2 -13 0
1 2 14 0
-1 -2 -14 0
1 2 15 0
-1 -2 -15 0
1 2 16 0
-1 -2 -16 0
1 2 17 0
-1 -2 -17 0
1 2 18 0
-1 -2 -18 0
1 2 19 0
-1 -2 -19 0
1 2 20 0
-1 -2 -20 0
1 3 4 0
-1 -3 -4 0
1 3 5 0
-1 -3 -5 0
1 3 6 0
-1 -3 -6 0
1 3 7 0
-1 -3 -7 0
1 3 8 0
-1 -3 -8 0
1 3 9 0
-1 -3 -9 0
1 3 10 0
-1 -3 -10 0
1 3 11 0
-1 -3 -11 0
1 3 12 0
-1 -3 -12 0
